200
1000
240
239
239
239
238
237
237
236
235
235
234
234
234
233
233
233
233
232
232
232
232
231
230
229
229
228
228
228
227
227
227
225
225
225
225
224
224
224
223
223
223
221
221
221
221
221
220
220
220
220
220
219
219
219
218
218
218
218
217
217
217
217
216
216
215
215
215
214
213
213
213
213
213
212
212
212
211
211
210
209
209
209
208
208
208
208
208
207
207
206
206
206
206
204
204
204
204
204
204
204
204
203
202
202
202
201
201
201
200
200
199
199
199
199
199
198
197
197
197
197
197
197
196
196
196
196
195
194
194
193
193
193
193
192
190
190
189
189
189
187
187
186
186
186
186
185
184
184
184
183
182
182
182
181
181
181
179
178
177
177
177
176
176
176
176
176
175
175
175
173
173
173
172
172
172
172
172
172
171
171
171
171
170
170
170
169
169
169
167
167
167
165
164
164
164
164
164
163
163
162
